x low 4.00
p edge 404 1148
n 0 1.00
n 9 1.00
n 7 1.00
n 6 1.00
n 4 1.00
n 348 1.00
n 308 1.00
n 1 1.00
n 11 1.00
n 12 1.00
n 5 1.00
n 2 1.00
n 127 1.00
n 16 1.00
n 8 1.00
n 151 1.00
n 19 1.00
n 20 1.00
n 15 1.00
n 18 1.00
n 24 1.00
n 21 1.00
n 26 1.00
n 10 1.00
n 13 1.00
n 17 1.00
n 14 1.00
n 29 1.00
n 22 1.00
n 25 1.00
n 23 1.00
n 27 1.00
n 30 1.00
n 31 1.00
n 33 1.00
n 352 1.00
n 351 1.00
n 349 1.00
n 350 1.00
n 28 1.00
n 36 1.00
n 152 1.00
n 38 1.00
n 32 1.00
n 59 1.00
n 34 1.00
n 132 1.00
n 340 1.00
n 341 1.00
n 130 1.00
n 342 1.00
n 343 1.00
n 344 1.00
n 345 1.00
n 346 1.00
n 347 1.00
n 339 1.00
n 332 1.00
n 71 1.00
n 43 1.00
n 35 1.00
n 37 1.00
n 182 1.00
n 180 1.00
n 178 1.00
n 353 1.00
n 354 1.00
n 355 1.00
n 356 1.00
n 338 1.00
n 39 1.00
n 40 1.00
n 45 1.00
n 134 1.00
n 136 1.00
n 138 1.00
n 140 1.00
n 142 1.00
n 150 1.00
n 144 1.00
n 146 1.00
n 148 1.00
n 184 1.00
n 186 1.00
n 188 1.00
n 190 1.00
n 192 1.00
n 194 1.00
n 198 1.00
n 200 1.00
n 196 1.00
n 53 1.00
n 295 1.00
n 41 1.00
n 55 1.00
n 52 1.00
n 47 1.00
n 42 1.00
n 44 1.00
n 49 1.00
n 46 1.00
n 48 1.00
n 58 1.00
n 50 1.00
n 51 1.00
n 56 1.00
n 271 1.00
n 57 1.00
n 75 1.00
n 72 1.00
n 64 1.00
n 77 1.00
n 61 1.00
n 65 1.00
n 62 1.00
n 63 1.00
n 60 1.00
n 67 1.00
n 74 1.00
n 70 1.00
n 92 1.00
n 102 1.00
n 66 1.00
n 69 1.00
n 78 1.00
n 73 1.00
n 68 1.00
n 95 1.00
n 87 1.00
n 83 1.00
n 80 1.00
n 89 1.00
n 96 1.00
n 91 1.00
n 357 1.00
n 86 1.00
n 81 1.00
n 84 1.00
n 79 1.00
n 98 1.00
n 263 1.00
n 265 1.00
n 267 1.00
n 269 1.00
n 90 1.00
n 85 1.00
n 99 1.00
n 93 1.00
n 94 1.00
n 97 1.00
n 104 1.00
n 101 1.00
n 100 1.00
n 374 1.00
n 375 1.00
n 376 1.00
n 377 1.00
n 378 1.00
n 249 1.00
n 251 1.00
n 253 1.00
n 255 1.00
n 257 1.00
n 259 1.00
n 261 1.00
n 103 1.00
n 368 1.00
n 369 1.00
n 370 1.00
n 371 1.00
n 372 1.00
n 373 1.00
n 203 1.00
n 205 1.00
n 207 1.00
n 201 1.00
n 209 1.00
n 367 1.00
n 211 1.00
n 213 1.00
n 366 1.00
n 215 1.00
n 217 1.00
n 365 1.00
n 219 1.00
n 221 1.00
n 223 1.00
n 364 1.00
n 363 1.00
n 362 1.00
n 361 1.00
n 360 1.00
n 359 1.00
n 358 1.00
n 408 1.00
n 247 1.00
n 105 1.00
n 129 1.00
n 106 1.00
n 107 1.00
n 307 1.00
n 131 1.00
n 108 1.00
n 109 1.00
n 133 1.00
n 110 1.00
n 111 1.00
n 135 1.00
n 112 1.00
n 113 1.00
n 137 1.00
n 114 1.00
n 115 1.00
n 139 1.00
n 116 1.00
n 117 1.00
n 141 1.00
n 118 1.00
n 119 1.00
n 143 1.00
n 120 1.00
n 121 1.00
n 145 1.00
n 122 1.00
n 123 1.00
n 147 1.00
n 124 1.00
n 125 1.00
n 149 1.00
n 126 1.00
n 128 1.00
n 153 1.00
n 177 1.00
n 154 1.00
n 155 1.00
n 317 1.00
n 179 1.00
n 156 1.00
n 157 1.00
n 181 1.00
n 158 1.00
n 159 1.00
n 183 1.00
n 160 1.00
n 161 1.00
n 185 1.00
n 162 1.00
n 163 1.00
n 187 1.00
n 164 1.00
n 165 1.00
n 189 1.00
n 166 1.00
n 167 1.00
n 191 1.00
n 168 1.00
n 169 1.00
n 193 1.00
n 170 1.00
n 171 1.00
n 195 1.00
n 172 1.00
n 173 1.00
n 197 1.00
n 174 1.00
n 175 1.00
n 176 1.00
n 225 1.00
n 202 1.00
n 226 1.00
n 204 1.00
n 227 1.00
n 228 1.00
n 229 1.00
n 206 1.00
n 230 1.00
n 231 1.00
n 208 1.00
n 232 1.00
n 233 1.00
n 210 1.00
n 234 1.00
n 235 1.00
n 212 1.00
n 236 1.00
n 214 1.00
n 237 1.00
n 238 1.00
n 239 1.00
n 216 1.00
n 240 1.00
n 241 1.00
n 218 1.00
n 242 1.00
n 220 1.00
n 243 1.00
n 244 1.00
n 245 1.00
n 222 1.00
n 246 1.00
n 224 1.00
n 248 1.00
n 407 1.00
n 392 1.00
n 273 1.00
n 250 1.00
n 274 1.00
n 275 1.00
n 252 1.00
n 276 1.00
n 277 1.00
n 254 1.00
n 278 1.00
n 279 1.00
n 256 1.00
n 280 1.00
n 281 1.00
n 258 1.00
n 282 1.00
n 283 1.00
n 260 1.00
n 284 1.00
n 285 1.00
n 262 1.00
n 286 1.00
n 287 1.00
n 264 1.00
n 288 1.00
n 289 1.00
n 266 1.00
n 290 1.00
n 291 1.00
n 268 1.00
n 292 1.00
n 293 1.00
n 270 1.00
n 294 1.00
n 272 1.00
n 296 1.00
n 416 1.00
n 398 1.00
n 327 1.00
n 298 1.00
n 319 1.00
n 299 1.00
n 329 1.00
n 328 1.00
n 301 1.00
n 320 1.00
n 302 1.00
n 321 1.00
n 303 1.00
n 322 1.00
n 330 1.00
n 331 1.00
n 305 1.00
n 333 1.00
n 309 1.00
n 323 1.00
n 310 1.00
n 335 1.00
n 334 1.00
n 312 1.00
n 324 1.00
n 313 1.00
n 325 1.00
n 326 1.00
n 314 1.00
n 336 1.00
n 337 1.00
n 316 1.00
n 399 1.00
n 387 1.00
n 379 1.00
n 388 1.00
n 389 1.00
n 402 1.00
n 403 1.00
n 380 1.00
n 405 1.00
n 381 1.00
n 404 1.00
n 382 1.00
n 390 1.00
n 391 1.00
n 393 1.00
n 383 1.00
n 395 1.00
n 394 1.00
n 411 1.00
n 412 1.00
n 384 1.00
n 414 1.00
n 385 1.00
n 413 1.00
n 386 1.00
n 396 1.00
n 397 1.00
n 400 1.00
n 401 1.00
n 406 1.00
n 409 1.00
n 410 1.00
n 415 1.00
e 0 9
e 0 7
e 0 6
e 0 4
e 0 348
e 0 308
e 1 11
e 1 12
e 1 5
e 1 2
e 1 4
e 1 308
e 1 127
e 2 11
e 2 16
e 2 8
e 2 151
e 2 127
e 4 5
e 4 6
e 4 308
e 5 19
e 5 20
e 5 6
e 5 12
e 6 20
e 6 15
e 6 9
e 7 9
e 7 18
e 7 24
e 7 21
e 7 348
e 8 26
e 8 10
e 8 16
e 8 13
e 8 151
e 9 17
e 9 18
e 9 15
e 10 26
e 10 14
e 10 13
e 11 19
e 11 16
e 11 12
e 12 19
e 13 14
e 13 29
e 13 22
e 13 151
e 14 26
e 14 29
e 15 20
e 15 25
e 15 17
e 16 19
e 16 26
e 17 18
e 17 25
e 18 25
e 18 23
e 18 24
e 19 26
e 19 27
e 19 20
e 20 27
e 20 30
e 20 25
e 21 31
e 21 24
e 21 33
e 21 352
e 21 351
e 21 349
e 21 350
e 21 348
e 22 29
e 22 28
e 22 36
e 22 152
e 22 151
e 23 25
e 23 31
e 23 24
e 24 31
e 25 31
e 25 30
e 26 27
e 26 38
e 26 29
e 27 38
e 27 30
e 28 29
e 28 38
e 28 36
e 29 38
e 30 31
e 30 38
e 31 38
e 31 33
e 32 59
e 32 34
e 32 36
e 32 132
e 32 340
e 32 341
e 32 130
e 32 342
e 32 343
e 32 344
e 32 345
e 32 346
e 32 347
e 32 339
e 32 332
e 32 71
e 33 43
e 33 35
e 33 38
e 33 37
e 33 182
e 33 352
e 33 180
e 33 178
e 33 353
e 33 354
e 33 355
e 33 356
e 33 338
e 34 36
e 34 39
e 34 59
e 35 40
e 35 45
e 35 37
e 35 43
e 36 39
e 36 38
e 36 132
e 36 134
e 36 136
e 36 138
e 36 140
e 36 142
e 36 150
e 36 152
e 36 144
e 36 146
e 36 148
e 37 40
e 37 182
e 37 184
e 37 186
e 37 188
e 37 190
e 37 192
e 37 194
e 37 198
e 37 200
e 37 196
e 37 53
e 37 295
e 38 43
e 38 41
e 38 39
e 39 55
e 39 59
e 39 52
e 39 41
e 40 47
e 40 42
e 40 45
e 40 53
e 41 52
e 41 44
e 41 43
e 42 47
e 42 49
e 42 45
e 43 44
e 43 46
e 43 48
e 43 45
e 44 46
e 44 52
e 45 49
e 45 48
e 46 52
e 46 58
e 46 50
e 46 48
e 47 53
e 47 49
e 48 51
e 48 50
e 48 49
e 49 51
e 49 53
e 50 51
e 50 56
e 50 58
e 51 56
e 51 53
e 52 58
e 52 55
e 53 56
e 53 271
e 53 295
e 55 58
e 55 57
e 55 59
e 56 271
e 56 75
e 56 58
e 57 72
e 57 64
e 57 77
e 57 58
e 57 61
e 57 59
e 58 65
e 58 62
e 58 77
e 58 63
e 58 60
e 58 67
e 58 75
e 59 61
e 59 71
e 60 74
e 60 70
e 60 67
e 60 63
e 61 64
e 61 92
e 61 102
e 61 71
e 62 66
e 62 69
e 62 65
e 62 63
e 63 78
e 63 73
e 63 66
e 63 74
e 64 92
e 64 68
e 64 72
e 65 69
e 65 95
e 65 87
e 65 83
e 65 77
e 66 73
e 66 69
e 67 70
e 67 80
e 67 75
e 68 92
e 68 89
e 68 72
e 69 73
e 69 96
e 69 95
e 70 91
e 70 80
e 70 74
e 71 102
e 71 357
e 71 339
e 72 86
e 72 89
e 72 81
e 72 77
e 73 96
e 73 84
e 73 78
e 74 91
e 74 79
e 74 78
e 75 80
e 75 98
e 75 263
e 75 265
e 75 267
e 75 269
e 75 271
e 77 90
e 77 83
e 77 81
e 78 84
e 78 85
e 78 79
e 79 85
e 79 99
e 79 91
e 80 98
e 80 91
e 81 93
e 81 86
e 81 90
e 83 94
e 83 87
e 83 90
e 84 99
e 84 96
e 84 85
e 85 99
e 86 93
e 86 89
e 87 95
e 87 94
e 89 92
e 89 93
e 90 93
e 90 94
e 91 99
e 91 97
e 91 98
e 92 93
e 92 104
e 92 102
e 93 101
e 93 104
e 93 94
e 94 95
e 94 101
e 95 96
e 95 101
e 96 101
e 96 99
e 97 99
e 97 100
e 97 98
e 98 100
e 98 374
e 98 375
e 98 376
e 98 377
e 98 378
e 98 249
e 98 251
e 98 253
e 98 255
e 98 257
e 98 259
e 98 261
e 98 263
e 99 100
e 99 101
e 100 101
e 100 103
e 100 368
e 100 369
e 100 370
e 100 371
e 100 372
e 100 373
e 100 374
e 101 104
e 101 103
e 102 203
e 102 205
e 102 207
e 102 201
e 102 209
e 102 367
e 102 211
e 102 213
e 102 366
e 102 215
e 102 217
e 102 365
e 102 219
e 102 221
e 102 223
e 102 364
e 102 363
e 102 362
e 102 104
e 102 361
e 102 360
e 102 359
e 102 358
e 102 357
e 103 368
e 103 104
e 104 408
e 104 247
e 104 368
e 104 223
e 105 129
e 105 106
e 105 107
e 105 307
e 106 129
e 106 130
e 106 307
e 107 131
e 107 108
e 107 129
e 107 109
e 108 132
e 108 130
e 108 131
e 108 129
e 109 133
e 109 110
e 109 131
e 109 111
e 110 134
e 110 132
e 110 133
e 110 131
e 111 135
e 111 112
e 111 133
e 111 113
e 112 134
e 112 136
e 112 135
e 112 133
e 113 137
e 113 114
e 113 135
e 113 115
e 114 136
e 114 138
e 114 137
e 114 135
e 115 139
e 115 116
e 115 137
e 115 117
e 116 138
e 116 140
e 116 139
e 116 137
e 117 141
e 117 118
e 117 139
e 117 119
e 118 142
e 118 140
e 118 141
e 118 139
e 119 143
e 119 120
e 119 141
e 119 121
e 120 142
e 120 144
e 120 143
e 120 141
e 121 145
e 121 122
e 121 143
e 121 123
e 122 144
e 122 146
e 122 145
e 122 143
e 123 147
e 123 124
e 123 145
e 123 125
e 124 148
e 124 146
e 124 147
e 124 145
e 125 149
e 125 126
e 125 147
e 125 127
e 126 148
e 126 150
e 126 149
e 126 147
e 127 151
e 127 128
e 127 149
e 127 308
e 128 150
e 128 152
e 128 151
e 128 149
e 129 130
e 130 132
e 130 332
e 130 307
e 131 132
e 132 134
e 133 134
e 134 136
e 135 136
e 136 138
e 137 138
e 138 140
e 139 140
e 140 142
e 141 142
e 142 144
e 143 144
e 144 146
e 145 146
e 146 148
e 147 148
e 148 150
e 149 150
e 150 152
e 151 152
e 153 177
e 153 154
e 153 155
e 154 177
e 154 178
e 154 338
e 154 317
e 155 179
e 155 156
e 155 177
e 155 157
e 156 178
e 156 180
e 156 179
e 156 177
e 157 181
e 157 158
e 157 179
e 157 159
e 158 180
e 158 182
e 158 181
e 158 179
e 159 183
e 159 160
e 159 181
e 159 161
e 160 182
e 160 184
e 160 183
e 160 181
e 161 185
e 161 162
e 161 183
e 161 163
e 162 184
e 162 186
e 162 185
e 162 183
e 163 187
e 163 164
e 163 185
e 163 165
e 164 188
e 164 186
e 164 187
e 164 185
e 165 189
e 165 166
e 165 187
e 165 167
e 166 188
e 166 190
e 166 189
e 166 187
e 167 191
e 167 168
e 167 189
e 167 169
e 168 192
e 168 190
e 168 191
e 168 189
e 169 193
e 169 170
e 169 191
e 169 171
e 170 192
e 170 194
e 170 193
e 170 191
e 171 195
e 171 172
e 171 193
e 171 173
e 172 194
e 172 196
e 172 195
e 172 193
e 173 197
e 173 174
e 173 195
e 173 175
e 174 196
e 174 198
e 174 197
e 174 195
e 175 176
e 175 197
e 176 198
e 176 200
e 176 197
e 177 178
e 178 180
e 178 338
e 179 180
e 180 182
e 181 182
e 182 184
e 183 184
e 184 186
e 185 186
e 186 188
e 187 188
e 188 190
e 189 190
e 190 192
e 191 192
e 192 194
e 193 194
e 194 196
e 195 196
e 196 198
e 197 198
e 198 200
e 200 295
e 201 225
e 201 202
e 201 203
e 201 367
e 202 225
e 202 226
e 202 367
e 203 225
e 203 204
e 203 227
e 203 205
e 204 228
e 204 226
e 204 225
e 204 227
e 205 229
e 205 206
e 205 227
e 205 207
e 206 230
e 206 228
e 206 229
e 206 227
e 207 231
e 207 208
e 207 229
e 207 209
e 208 230
e 208 232
e 208 231
e 208 229
e 209 233
e 209 210
e 209 231
e 209 211
e 210 232
e 210 234
e 210 233
e 210 231
e 211 235
e 211 212
e 211 233
e 211 213
e 212 234
e 212 236
e 212 235
e 212 233
e 213 235
e 213 214
e 213 237
e 213 215
e 214 238
e 214 236
e 214 235
e 214 237
e 215 239
e 215 216
e 215 237
e 215 217
e 216 238
e 216 240
e 216 239
e 216 237
e 217 241
e 217 218
e 217 239
e 217 219
e 218 240
e 218 242
e 218 241
e 218 239
e 219 241
e 219 220
e 219 243
e 219 221
e 220 244
e 220 242
e 220 241
e 220 243
e 221 245
e 221 222
e 221 243
e 221 223
e 222 244
e 222 246
e 222 245
e 222 243
e 223 247
e 223 224
e 223 245
e 224 246
e 224 248
e 224 247
e 224 245
e 225 226
e 226 228
e 226 407
e 226 392
e 226 367
e 226 366
e 227 228
e 228 230
e 228 407
e 229 230
e 230 232
e 230 407
e 231 232
e 232 234
e 232 407
e 233 234
e 234 236
e 234 407
e 235 236
e 236 238
e 236 407
e 237 238
e 238 240
e 238 407
e 239 240
e 240 242
e 240 407
e 241 242
e 242 244
e 242 407
e 243 244
e 244 246
e 244 407
e 245 246
e 246 248
e 246 407
e 247 248
e 247 408
e 248 408
e 248 407
e 249 273
e 249 250
e 249 251
e 249 378
e 250 273
e 250 274
e 250 378
e 251 275
e 251 252
e 251 273
e 251 253
e 252 274
e 252 276
e 252 275
e 252 273
e 253 277
e 253 254
e 253 275
e 253 255
e 254 276
e 254 278
e 254 277
e 254 275
e 255 279
e 255 256
e 255 277
e 255 257
e 256 278
e 256 280
e 256 279
e 256 277
e 257 281
e 257 258
e 257 279
e 257 259
e 258 280
e 258 282
e 258 281
e 258 279
e 259 283
e 259 260
e 259 281
e 259 261
e 260 284
e 260 282
e 260 283
e 260 281
e 261 285
e 261 262
e 261 283
e 261 263
e 262 284
e 262 286
e 262 285
e 262 283
e 263 287
e 263 264
e 263 285
e 263 265
e 264 288
e 264 286
e 264 287
e 264 285
e 265 289
e 265 266
e 265 287
e 265 267
e 266 288
e 266 290
e 266 289
e 266 287
e 267 291
e 267 268
e 267 289
e 267 269
e 268 290
e 268 292
e 268 291
e 268 289
e 269 293
e 269 270
e 269 291
e 269 271
e 270 292
e 270 294
e 270 293
e 270 291
e 271 295
e 271 272
e 271 293
e 272 294
e 272 296
e 272 295
e 272 293
e 273 274
e 274 276
e 274 416
e 274 398
e 274 378
e 274 377
e 275 276
e 276 278
e 276 416
e 277 278
e 278 280
e 278 416
e 279 280
e 280 282
e 280 416
e 281 282
e 282 284
e 282 416
e 283 284
e 284 286
e 284 416
e 285 286
e 286 288
e 286 416
e 287 288
e 288 290
e 288 416
e 289 290
e 290 292
e 290 416
e 291 292
e 292 294
e 292 416
e 293 294
e 294 296
e 294 416
e 295 296
e 296 416
e 298 319
e 298 327
e 298 299
e 299 329
e 299 328
e 299 319
e 301 329
e 301 342
e 301 343
e 301 320
e 301 302
e 302 345
e 302 321
e 302 344
e 302 320
e 302 303
e 303 322
e 303 330
e 303 331
e 303 321
e 305 331
e 305 332
e 307 332
e 308 333
e 308 348
e 308 309
e 309 323
e 309 333
e 309 310
e 310 335
e 310 334
e 310 323
e 312 335
e 312 351
e 312 352
e 312 324
e 312 313
e 313 354
e 313 325
e 313 353
e 313 324
e 313 326
e 313 314
e 314 326
e 314 336
e 314 337
e 316 338
e 316 337
e 316 317
e 317 338
e 319 327
e 319 340
e 319 341
e 319 328
e 320 343
e 320 344
e 321 346
e 321 345
e 321 322
e 322 330
e 322 347
e 322 346
e 323 333
e 323 349
e 323 350
e 323 334
e 324 352
e 324 353
e 325 355
e 325 354
e 325 326
e 326 336
e 326 356
e 326 355
e 327 339
e 327 340
e 328 329
e 328 341
e 329 342
e 329 341
e 330 331
e 330 347
e 331 332
e 331 347
e 332 347
e 333 348
e 333 349
e 334 335
e 334 350
e 335 351
e 335 350
e 336 337
e 336 356
e 337 338
e 337 356
e 338 356
e 339 340
e 339 357
e 339 399
e 340 341
e 341 342
e 342 343
e 343 344
e 344 345
e 345 346
e 346 347
e 348 349
e 349 350
e 350 351
e 351 352
e 352 353
e 353 354
e 354 355
e 355 356
e 357 387
e 357 399
e 357 358
e 358 379
e 358 387
e 358 359
e 359 360
e 359 388
e 359 379
e 360 388
e 360 389
e 360 361
e 361 389
e 361 402
e 361 403
e 361 380
e 361 362
e 362 405
e 362 381
e 362 404
e 362 380
e 362 363
e 363 382
e 363 390
e 363 391
e 363 364
e 363 381
e 364 365
e 364 391
e 365 391
e 365 392
e 365 366
e 366 392
e 366 367
e 368 393
e 368 408
e 368 369
e 369 383
e 369 393
e 369 370
e 370 395
e 370 394
e 370 371
e 370 383
e 371 395
e 371 372
e 372 395
e 372 411
e 372 412
e 372 384
e 372 373
e 373 414
e 373 385
e 373 413
e 373 384
e 373 386
e 373 374
e 374 386
e 374 396
e 374 397
e 374 375
e 375 376
e 375 397
e 376 398
e 376 397
e 376 377
e 377 398
e 377 378
e 379 387
e 379 400
e 379 401
e 379 388
e 380 403
e 380 404
e 381 406
e 381 405
e 381 382
e 382 390
e 382 407
e 382 406
e 383 393
e 383 409
e 383 410
e 383 394
e 384 412
e 384 413
e 385 415
e 385 414
e 385 386
e 386 396
e 386 416
e 386 415
e 387 399
e 387 400
e 388 389
e 388 401
e 389 402
e 389 401
e 390 391
e 390 407
e 391 392
e 391 407
e 392 407
e 393 408
e 393 409
e 394 395
e 394 410
e 395 411
e 395 410
e 396 397
e 396 416
e 397 398
e 397 416
e 398 416
e 399 400
e 400 401
e 401 402
e 402 403
e 403 404
e 404 405
e 405 406
e 406 407
e 407 408
e 408 409
e 409 410
e 410 411
e 411 412
e 412 413
e 413 414
e 414 415
e 415 416
e 153 317
e 175 200
e 298 339
e 299 301
e 303 305
e 305 307
e 310 312
e 314 316
